c Generated planar graph
p edge 420 652
e 1 61
e 1 90
e 2 144
e 2 295
e 2 383
e 2 396
e 3 45
e 3 232
e 4 40
e 4 78
e 5 124
e 5 189
e 5 254
e 5 322
e 6 58
e 6 281
e 6 293
e 7 101
e 7 130
e 7 387
e 8 11
e 8 343
e 9 171
e 9 264
e 9 341
e 10 294
e 10 407
e 11 101
e 11 131
e 11 363
e 11 387
e 12 80
e 13 31
e 13 67
e 13 93
e 13 142
e 13 188
e 13 420
e 14 68
e 14 127
e 15 121
e 15 306
e 15 347
e 15 366
e 16 85
e 16 161
e 17 27
e 17 402
e 18 135
e 18 247
e 18 299
e 18 302
e 18 336
e 19 127
e 19 342
e 20 138
e 20 191
e 20 205
e 20 318
e 21 39
e 21 49
e 21 190
e 21 196
e 21 209
e 21 305
e 22 81
e 22 222
e 22 309
e 23 65
e 23 156
e 23 218
e 24 243
e 24 382
e 25 261
e 25 289
e 26 171
e 26 296
e 27 71
e 27 166
e 27 276
e 28 50
e 28 60
e 28 159
e 28 203
e 29 78
e 29 175
e 29 339
e 30 327
e 31 120
e 31 282
e 31 392
e 31 420
e 32 91
e 32 197
e 32 288
e 33 93
e 33 275
e 33 284
e 34 51
e 34 316
e 34 323
e 35 258
e 35 260
e 36 310
e 36 311
e 36 357
e 36 391
e 37 62
e 37 361
e 37 368
e 37 405
e 38 71
e 38 93
e 38 170
e 38 284
e 38 292
e 39 182
e 39 190
e 40 257
e 41 119
e 41 153
e 42 254
e 42 382
e 43 92
e 43 193
e 43 261
e 43 418
e 44 285
e 45 71
e 45 135
e 46 85
e 46 326
e 47 61
e 47 94
e 47 96
e 47 161
e 47 265
e 47 397
e 48 64
e 48 119
e 48 246
e 48 263
e 49 155
e 50 203
e 50 271
e 50 367
e 50 396
e 51 55
e 51 134
e 51 150
e 51 185
e 51 219
e 51 235
e 51 238
e 51 271
e 52 96
e 52 268
e 53 103
e 53 269
e 54 388
e 55 75
e 55 323
e 55 381
e 56 98
e 56 143
e 57 305
e 57 412
e 58 180
e 59 92
e 59 225
e 59 245
e 60 343
e 61 333
e 61 390
e 62 200
e 62 286
e 62 362
e 62 385
e 63 107
e 63 224
e 64 307
e 65 66
e 65 178
e 65 267
e 65 331
e 66 135
e 66 259
e 68 78
e 68 143
e 69 109
e 69 204
e 69 317
e 69 394
e 70 368
e 70 395
e 71 80
e 71 170
e 71 188
e 72 181
e 72 240
e 72 307
e 73 76
e 73 187
e 73 345
e 74 383
e 77 79
e 77 202
e 77 236
e 78 118
e 78 241
e 78 277
e 79 108
e 80 152
e 81 146
e 81 213
e 81 242
e 81 278
e 81 303
e 81 305
e 81 338
e 82 187
e 82 192
e 82 250
e 82 269
e 83 212
e 83 361
e 84 91
e 84 92
e 84 126
e 84 279
e 84 354
e 85 261
e 85 270
e 85 326
e 85 366
e 86 134
e 86 277
e 87 108
e 87 370
e 87 409
e 88 156
e 88 254
e 89 178
e 89 243
e 89 267
e 90 233
e 90 350
e 91 225
e 91 279
e 91 414
e 92 109
e 92 139
e 92 204
e 92 248
e 92 352
e 92 389
e 93 112
e 93 142
e 93 392
e 94 233
e 95 126
e 96 121
e 96 225
e 96 239
e 97 119
e 97 177
e 97 252
e 97 266
e 97 338
e 97 360
e 98 143
e 98 235
e 99 148
e 99 216
e 99 286
e 100 157
e 100 193
e 100 410
e 101 343
e 102 359
e 103 112
e 103 194
e 103 399
e 104 148
e 105 121
e 105 398
e 106 169
e 106 171
e 106 283
e 106 296
e 107 195
e 107 241
e 107 376
e 108 202
e 108 255
e 109 164
e 109 204
e 109 248
e 109 317
e 110 243
e 110 382
e 111 113
e 111 260
e 112 194
e 112 275
e 113 246
e 113 308
e 114 294
e 114 406
e 114 407
e 114 411
e 115 151
e 115 238
e 115 264
e 115 296
e 116 199
e 116 209
e 116 269
e 117 121
e 117 161
e 117 326
e 117 337
e 118 322
e 118 331
e 119 153
e 119 177
e 119 395
e 120 165
e 120 269
e 120 344
e 120 388
e 121 394
e 122 236
e 122 370
e 122 377
e 123 166
e 123 184
e 123 402
e 124 349
e 124 374
e 125 332
e 128 195
e 128 302
e 128 376
e 128 420
e 129 285
e 129 350
e 131 175
e 132 182
e 132 379
e 133 217
e 133 391
e 134 415
e 135 202
e 135 255
e 135 336
e 136 182
e 137 191
e 137 329
e 138 153
e 138 205
e 139 268
e 139 389
e 140 147
e 140 286
e 140 301
e 141 172
e 141 208
e 141 246
e 141 267
e 141 393
e 142 170
e 143 342
e 144 283
e 145 165
e 145 220
e 145 237
e 145 420
e 146 287
e 146 338
e 146 360
e 147 290
e 147 298
e 147 385
e 148 226
e 148 286
e 148 301
e 149 281
e 149 286
e 150 185
e 150 343
e 151 367
e 152 247
e 152 365
e 153 395
e 154 313
e 154 316
e 154 323
e 156 218
e 157 240
e 157 334
e 157 418
e 158 230
e 158 415
e 159 274
e 159 396
e 160 268
e 160 291
e 160 380
e 160 394
e 161 181
e 161 289
e 161 326
e 161 334
e 161 397
e 162 204
e 162 317
e 162 378
e 163 168
e 164 380
e 165 195
e 166 402
e 167 326
e 168 314
e 168 353
e 168 398
e 168 411
e 169 171
e 169 295
e 171 358
e 172 260
e 172 277
e 172 308
e 173 420
e 174 197
e 174 285
e 175 190
e 175 253
e 176 220
e 176 223
e 177 194
e 178 218
e 178 243
e 179 383
e 179 396
e 180 286
e 180 288
e 182 412
e 183 214
e 183 279
e 183 351
e 184 272
e 185 201
e 185 342
e 185 387
e 186 189
e 186 277
e 186 374
e 187 192
e 189 374
e 190 256
e 190 346
e 191 395
e 192 282
e 192 328
e 193 280
e 193 289
e 194 198
e 194 208
e 194 246
e 195 220
e 196 332
e 197 265
e 197 350
e 199 346
e 200 242
e 200 278
e 200 290
e 200 419
e 201 231
e 201 363
e 202 236
e 203 271
e 203 372
e 204 359
e 204 403
e 206 222
e 206 309
e 206 318
e 206 329
e 206 395
e 207 246
e 207 258
e 207 352
e 208 275
e 208 276
e 209 269
e 209 303
e 210 230
e 210 313
e 211 341
e 213 360
e 214 324
e 214 351
e 214 391
e 215 356
e 216 244
e 217 371
e 219 264
e 219 316
e 221 297
e 221 398
e 222 312
e 224 346
e 227 251
e 227 288
e 227 362
e 228 249
e 228 341
e 229 250
e 230 277
e 230 340
e 231 321
e 232 273
e 233 263
e 233 333
e 234 289
e 236 302
e 239 291
e 242 368
e 243 374
e 244 286
e 244 298
e 244 419
e 245 268
e 247 420
e 250 269
e 250 392
e 250 399
e 251 263
e 251 356
e 252 360
e 253 256
e 255 259
e 255 409
e 256 330
e 256 419
e 257 259
e 257 331
e 257 376
e 258 279
e 259 327
e 259 370
e 259 375
e 259 409
e 260 313
e 261 297
e 261 319
e 261 335
e 261 398
e 262 265
e 262 414
e 263 307
e 263 348
e 266 269
e 266 303
e 267 374
e 267 402
e 268 380
e 269 303
e 269 346
e 270 297
e 270 407
e 271 367
e 273 365
e 274 396
e 274 419
e 276 292
e 276 393
e 276 417
e 277 313
e 278 412
e 279 384
e 279 408
e 281 286
e 281 293
e 283 413
e 286 293
e 286 419
e 287 360
e 288 348
e 288 384
e 290 416
e 291 394
e 293 384
e 293 404
e 294 297
e 294 320
e 295 315
e 295 316
e 295 396
e 295 404
e 296 367
e 296 383
e 297 353
e 300 324
e 300 325
e 300 371
e 302 420
e 304 310
e 304 325
e 305 332
e 305 379
e 306 398
e 306 411
e 310 324
e 311 355
e 313 315
e 313 340
e 313 351
e 313 381
e 313 391
e 314 353
e 315 371
e 318 360
e 320 406
e 321 339
e 323 381
e 325 391
e 327 375
e 330 343
e 334 410
e 336 365
e 337 397
e 343 387
e 345 388
e 347 369
e 363 387
e 364 394
e 368 395
e 369 373
e 369 400
e 369 407
e 370 386
e 371 404
e 371 408
e 374 382
e 375 377
e 380 389
e 398 403
e 401 414
e 402 417
